Route #1: 26 15 10 8 21 17 43 31 20 30 44 12 42 28
Route #2: 36 19 41 24 2 6 45 11 38 16 18 23
Route #3: 1 4 29 25 32 37
Route #4: 35 5 27 22 7 34 40 3 13 39 14 9 33
Route #5: 
Route #6: 
Route #7: 
cost 1457.6143541995707
